(set-logic QF_S)
(set-option :parse-transducers true)
(set-option :produce-models true)
(define-fun-rec toLower ((x String) (y String)) Bool
   (or (and (= x "") (= y ""))
       (and (not (= x "")) (not (= y ""))
           (= (char.code (str.head y))
               (ite (and (<= 65 (char.code (str.head x)))
                       (<= (char.code (str.head x)) 90))
                   (+ (char.code (str.head x)) 32)
                   (char.code (str.head x))))
           (toLower (str.tail x) (str.tail y))))
)
(declare-fun sym601 () String)
(declare-fun sym403 () String)
(declare-fun sym205 () String)
(declare-fun sym645 () String)
(declare-fun sym449 () String)
(declare-fun sym329 () String)
(declare-fun sym529 () String)
(declare-fun sym681 () String)
(declare-fun sym485 () String)
(declare-fun sym563 () String)
(declare-fun sym245 () String)
(declare-fun sym368 () String)
(declare-fun sym721 () String)
(declare-fun sym160 () String)
(declare-fun sym284 () String)
(declare-fun sym459 () String)
(declare-fun sym735 () String)
(declare-fun sym539 () String)
(declare-fun sym419 () String)
(declare-fun sym175 () String)
(declare-fun sym495 () String)
(declare-fun sym255 () String)
(declare-fun sym135 () String)
(declare-fun sym577 () String)
(declare-fun sym655 () String)
(declare-fun sym215 () String)
(declare-fun sym611 () String)
(declare-fun sym294 () String)
(declare-fun sym691 () String)
(declare-fun sym20 () String)
(declare-fun sym745 () String)
(declare-fun sym701 () String)
(declare-fun sym549 () String)
(declare-fun sym505 () String)
(declare-fun sym429 () String)
(declare-fun sym309 () String)
(declare-fun sym343 () String)
(declare-fun sym587 () String)
(declare-fun sym269 () String)
(declare-fun sym225 () String)
(declare-fun sym621 () String)
(declare-fun sym665 () String)
(declare-fun sym185 () String)
(declare-fun sym383 () String)
(declare-fun sym711 () String)
(declare-fun sym755 () String)
(declare-fun sym635 () String)
(declare-fun sym515 () String)
(declare-fun sym439 () String)
(declare-fun sym319 () String)
(declare-fun sym475 () String)
(declare-fun sym113 () String)
(declare-fun sym235 () String)
(declare-fun sym358 () String)
(declare-fun sym150 () String)
(declare-fun sym393 () String)
(declare-fun sym195 () String)
(declare-fun L27  () String)
(declare-fun L39  () String)
(declare-fun L67  () String)
(declare-fun L106  () String)
(declare-fun L35  () String)
(declare-fun L47  () String)
(declare-fun L31  () String)
(declare-fun L43  () String)
(declare-fun L55  () String)
(declare-fun L3  () String)
(declare-fun L110  () String)
(declare-fun L51  () String)
(declare-fun L102  () String)
(declare-fun L18  () String)
(declare-fun L78  () String)
(declare-fun L14  () String)
(declare-fun L26  () String)
(declare-fun L30  () String)
(declare-fun L74  () String)
(declare-fun L8  () String)
(declare-fun L86  () String)
(declare-fun L10  () String)
(declare-fun L54  () String)
(declare-fun L98  () String)
(declare-fun L22  () String)
(declare-fun L66  () String)
(declare-fun L70  () String)
(declare-fun L4  () String)
(declare-fun L82  () String)
(declare-fun L94  () String)
(declare-fun L62  () String)
(declare-fun L0  () String)
(declare-fun L90  () String)
(declare-fun L49  () String)
(declare-fun L45  () String)
(declare-fun L89  () String)
(declare-fun L57  () String)
(declare-fun L9  () String)
(declare-fun L104  () String)
(declare-fun L37  () String)
(declare-fun L41  () String)
(declare-fun L53  () String)
(declare-fun L108  () String)
(declare-fun L33  () String)
(declare-fun L1  () String)
(declare-fun L100  () String)
(declare-fun L112  () String)
(declare-fun L16  () String)
(declare-fun L28  () String)
(declare-fun L12  () String)
(declare-fun L24  () String)
(declare-fun L68  () String)
(declare-fun L96  () String)
(declare-fun L20  () String)
(declare-fun L64  () String)
(declare-fun L32  () String)
(declare-fun L76  () String)
(declare-fun L6  () String)
(declare-fun L88  () String)
(declare-fun L92  () String)
(declare-fun L60  () String)
(declare-fun L72  () String)
(declare-fun L2  () String)
(declare-fun L84  () String)
(declare-fun L80  () String)
(assert (toLower sym459  L80 ))
(assert (toLower sym529  L84 ))
(assert (toLower sym485  L2 ))
(assert (toLower sym515  L72 ))
(assert (toLower sym655  L60 ))
(assert (toLower sym215  L92 ))
(assert (toLower sym113  L88 ))
(assert (toLower sym185  L6 ))
(assert (toLower sym319  L76 ))
(assert (toLower "type"  L32 ))
(assert (toLower sym635  L64 ))
(assert (toLower sym269  L20 ))
(assert (toLower sym563  L96 ))
(assert (toLower sym429  L68 ))
(assert (toLower sym539  L24 ))
(assert (toLower sym160  L12 ))
(assert (toLower sym577  L28 ))
(assert (toLower sym245  L16 ))
(assert (toLower sym701  L112 ))
(assert (toLower sym745  L100 ))
(assert (toLower "name"  L1 ))
(assert (toLower sym755  L33 ))
(assert (toLower sym175  L108 ))
(assert (toLower sym721  L53 ))
(assert (toLower sym393  L41 ))
(assert (toLower sym329  L37 ))
(assert (toLower sym495  L104 ))
(assert (toLower "length"  L9 ))
(assert (toLower sym645  L57 ))
(assert (toLower "database"  L89 ))
(assert (toLower sym681  L45 ))
(assert (toLower sym449  L49 ))
(assert (toLower sym284  L90 ))
(assert (toLower sym475  L0 ))
(assert (toLower sym505  L62 ))
(assert (toLower sym255  L94 ))
(assert (toLower sym368  L82 ))
(assert (toLower sym235  L4 ))
(assert (toLower sym309  L70 ))
(assert (toLower sym225  L66 ))
(assert (toLower sym135  L22 ))
(assert (toLower sym665  L98 ))
(assert (toLower "option"  L54 ))
(assert (toLower sym601  L10 ))
(assert (toLower sym195  L86 ))
(assert (toLower sym711  L8 ))
(assert (toLower sym621  L74 ))
(assert (toLower sym20  L30 ))
(assert (toLower sym549  L26 ))
(assert (toLower sym587  L14 ))
(assert (toLower sym358  L78 ))
(assert (toLower sym735  L18 ))
(assert (toLower sym691  L102 ))
(assert (toLower sym343  L51 ))
(assert (toLower sym611  L110 ))
(assert (toLower "description"  L3 ))
(assert (toLower sym383  L55 ))
(assert (toLower sym439  L43 ))
(assert (toLower sym403  L31 ))
(assert (toLower sym294  L47 ))
(assert (toLower sym150  L35 ))
(assert (toLower sym419  L106 ))
(assert (toLower "table"  L67 ))
(assert (toLower sym205  L39 ))
(assert (toLower "field"  L27 ))

(assert (not (= L0 L1 )))
(assert (not (= L2 L3 )))
(assert (not (= L4 L1 )))
(assert (not (= L6 L3 )))
(assert (not (= L8 L9 )))
(assert (not (= L10 L1 )))
(assert (= L12 L3 ))
(assert (= L14 L3 ))
(assert (not (= L16 L3 )))
(assert (not (= L18 L1 )))
(assert (= L20 L1 ))
(assert (= L22 L1 ))
(assert (not (= L24 L3 )))
(assert (= L26 L27 ))
(assert (not (= L28 L1 )))
(assert (not (= L30 "sql" )))
(assert (= L31 L32 ))
(assert (not (= L33 L27 )))
(assert (not (= L35 L1 )))
(assert (= L37 L27 ))
(assert (not (= L39 L1 )))
(assert (not (= L41 L3 )))
(assert (not (= L43 L32 )))
(assert (not (= L45 L1 )))
(assert (= L47 L3 ))
(assert (not (= L49 L9 )))
(assert (= L51 L1 ))
(assert (= L53 L54 ))
(assert (not (= L55 L1 )))
(assert (not (= L57 L3 )))
(assert (= L30 "html" ))
(assert (not (= L60 L32 )))
(assert (not (= L62 L9 )))
(assert (not (= L64 L1 )))
(assert (not (= L66 L67 )))
(assert (not (= L68 L3 )))
(assert (not (= L70 L1 )))
(assert (= L72 L54 ))
(assert (= L74 L32 ))
(assert (not (= L76 L3 )))
(assert (not (= L78 L1 )))
(assert (= L80 L54 ))
(assert (= L82 L3 ))
(assert (not (= L84 L1 )))
(assert (not (= L86 L67 )))
(assert (= L88 L89 ))
(assert (not (= L90 L1 )))
(assert (not (= L92 L3 )))
(assert (= L94 L67 ))
(assert (= L96 L1 ))
(assert (= L98 L9 ))
(assert (not (= L100 L3 )))
(assert (not (= L102 L3 )))
(assert (not (= L104 L32 )))
(assert (not (= L106 L1 )))
(assert (not (= L108 L1 )))
(assert (not (= L110 L3 )))
(assert (not (= L112 L32 )))
(check-sat)
(get-model)
(exit)
